p wcnf 103 52 53 
1 -90 -18 0 
1 -60 -48 0 
1 -34 -94 0 
1 1 -72 0 
1 -15 28 0 
1 -17 -30 0 
1 -79 -80 0 
1 7 63 0 
1 -23 85 0 
1 4 53 0 
1 -87 76 0 
1 -47 -39 0 
1 45 -89 0 
1 12 85 0 
1 -54 -83 0 
1 -14 -9 0 
1 -65 -48 0 
1 42 96 0 
1 -46 58 0 
1 -78 35 0 
1 11 87 0 
1 59 -15 0 
1 -52 71 0 
1 -51 34 0 
1 -83 47 0 
1 -8 66 0 
1 36 22 0 
1 -62 -39 0 
1 2 38 0 
1 -29 1 0 
1 -26 58 0 
1 -18 -38 0 
1 95 -103 0 
1 -85 -26 0 
1 41 -21 0 
1 91 -27 0 
1 -61 -11 0 
1 93 -57 0 
1 55 8 0 
1 95 -66 0 
1 -31 -88 0 
1 -57 -43 0 
1 -38 101 0 
1 30 61 0 
1 52 11 0 
1 65 -88 0 
1 97 -1 0 
1 -45 -72 0 
1 -93 -81 0 
1 66 101 0 
1 15 71 0 
1 -38 42 0 
